0 4 30 31 32 26 27 9 28 13 29 73 12 11 61 60 46 49 45 50 48 44 51 47 8 7 6 5 63 62 52 55 54 53 10 14 15 16 17 38 39 37 40 74 2 67 66 64 65 3 18 25 56 23 24 20 21 22 70 69 68 72 71 57 58 19 1 59 34 35 36 33 41 42 43 0 